Read MPS format model from file dat/rmp/4node_16384_10.mps
Reading time = 0.54 seconds
: 16444 rows, 49292 columns, 1504778 nonzeros
Gurobi Optimizer version 9.0.0 build v9.0.0rc2 (linux64)
Optimize a model with 16444 rows, 49292 columns and 1504778 nonzeros
Model fingerprint: 0xc44cc0e0
Coefficient statistics:
  Matrix range     [4e-04, 2e+01]
  Objective range  [1e+00, 1e+04]
  Bounds range     [0e+00, 0e+00]
  RHS range        [1e+00, 8e+01]
Ordering time: 0.02s

Barrier statistics:
 AA' NZ     : 7.194e+05
 Factor NZ  : 9.025e+05 (roughly 34 MBytes of memory)
 Factor Ops : 5.655e+07 (less than 1 second per iteration)
 Threads    : 1

                  Objective                Residual
Iter       Primal          Dual         Primal    Dual     Compl     Time
   0   3.48268024e+07  0.00000000e+00  6.62e+04 2.40e+02  7.57e+04     0s
   1   2.62657404e+06 -6.03945434e+07  4.74e+03 1.89e+03  7.14e+03     0s
   2   1.62436159e+06 -6.07672407e+07  2.55e+03 1.42e+03  4.44e+03     1s
   3   7.41098817e+05 -5.17575396e+07  9.59e+02 1.07e+03  2.32e+03     1s
   4   3.55316981e+05 -3.18516074e+07  1.57e+02 4.29e+02  9.39e+02     1s
   5   2.71560389e+05 -1.62108754e+06  1.38e-09 1.42e+01  4.56e+01     1s
   6   1.89602314e+05 -7.15176085e+05  2.47e-09 6.39e+00  2.13e+01     1s
   7   1.43773941e+05 -3.30687174e+05  1.24e-09 3.26e+00  1.11e+01     1s
   8   9.37690038e+04 -1.26672708e+05  1.92e-09 1.36e+00  5.06e+00     1s
   9   3.29943401e+04 -5.79760559e+04  2.85e-10 7.54e-01  2.16e+00     1s
  10   2.99736720e+03 -6.62458546e+03  5.39e-10 4.34e-02  2.10e-01     1s
  11   9.97521859e+02 -3.64371221e+03  2.02e-09 1.21e-02  9.82e-02     2s
  12   3.70899833e+02 -3.47383519e+03  3.85e-08 1.12e-02  8.17e-02     2s
  13   9.28219261e+02 -2.33586988e+03  4.90e-08 7.22e-03  6.86e-02     2s
  14   4.12882635e+02 -1.26451188e+03  3.32e-08 1.54e-03  3.46e-02     2s
  15  -2.34137904e+02 -4.40262435e+02  8.55e-08 8.34e-05  4.21e-03     2s
  16  -3.12847818e+02 -3.79493451e+02  1.96e-07 3.43e-06  1.35e-03     2s
  17  -3.21974734e+02 -3.75773799e+02  1.51e-07 2.64e-06  1.09e-03     2s
  18  -3.37569682e+02 -3.67606854e+02  3.67e-07 1.18e-06  6.10e-04     2s
  19  -3.41929469e+02 -3.66574090e+02  3.14e-07 6.27e-07  5.00e-04     3s
  20  -3.60205062e+02 -3.64516709e+02  6.73e-06 7.73e-08  8.75e-05     3s
  21  -3.61966830e+02 -3.62708839e+02  2.70e-06 3.44e-09  1.51e-05     3s
  22  -3.61966889e+02 -3.62639183e+02  3.76e-06 5.42e-10  1.36e-05     3s
  23  -3.61967033e+02 -3.62623245e+02  5.19e-06 1.09e-10  1.33e-05     3s
  24  -3.61967870e+02 -3.62607210e+02  5.06e-06 1.98e-10  1.30e-05     3s
  25  -3.61968960e+02 -3.62601241e+02  1.12e-05 1.53e-10  1.28e-05     4s
  26  -3.61969250e+02 -3.62600620e+02  1.22e-05 2.14e-11  1.28e-05     4s
  27  -3.61971438e+02 -3.62597224e+02  2.19e-05 4.63e-11  1.27e-05     4s
  28  -3.61973386e+02 -3.62596552e+02  3.43e-05 3.45e-11  1.26e-05     4s
  29  -3.61975370e+02 -3.62596305e+02  5.33e-05 3.25e-11  1.26e-05     4s
  30  -3.61980752e+02 -3.62594543e+02  7.63e-05 6.13e-11  1.25e-05     4s
  31  -3.61982736e+02 -3.62594648e+02  5.33e-05 1.38e-10  1.24e-05     4s
  32  -3.61999430e+02 -3.62594763e+02  1.27e-04 1.59e-11  1.21e-05     4s
  33  -3.62021906e+02 -3.62594693e+02  1.09e-04 7.82e-11  1.17e-05     5s
  34  -3.62045551e+02 -3.62594880e+02  1.10e-04 4.15e-11  1.12e-05     5s
  35  -3.62201848e+02 -3.62593103e+02  2.03e-04 2.00e-11  8.01e-06     5s
  36  -3.62217972e+02 -3.62592262e+02  5.70e-04 1.46e-11  7.48e-06     5s
  37  -3.62252573e+02 -3.62593003e+02  6.44e-04 1.46e-11  6.79e-06     5s
  38  -3.62278578e+02 -3.62593456e+02  6.06e-04 2.91e-11  6.27e-06     5s
  39  -3.62347743e+02 -3.62591708e+02  1.06e-03 1.46e-11  4.91e-06     5s
  40  -3.62418443e+02 -3.62591560e+02  1.49e-03 1.46e-11  3.82e-06     5s
  41  -3.62448329e+02 -3.62591753e+02  1.25e-03 1.46e-11  3.14e-06     5s
  42  -3.62520119e+02 -3.62591188e+02  1.70e-03 1.46e-11  1.63e-06     6s
  43  -3.62528474e+02 -3.62590886e+02  1.26e-03 1.46e-11  1.48e-06     6s
  44  -3.62524862e+02 -3.62590562e+02  9.60e-04 1.46e-11  1.25e-06     6s
  45  -3.62526254e+02 -3.62590454e+02  9.61e-04 1.46e-11  1.23e-06     6s
  46  -3.62522714e+02 -3.62590346e+02  9.67e-04 1.46e-11  1.23e-06     6s
  47  -3.62525873e+02 -3.62590327e+02  1.64e-03 2.91e-11  4.41e-07     6s
  48  -3.62537826e+02 -3.62590627e+02  7.30e-04 1.46e-11  2.21e-07     6s
  49  -3.62544389e+02 -3.62590624e+02  6.88e-04 1.46e-11  1.98e-07     6s
  50  -3.62545480e+02 -3.62590637e+02  6.50e-04 1.46e-11  1.83e-07     6s
  51  -3.62545816e+02 -3.62590642e+02  7.53e-04 1.46e-11  1.74e-07     7s
  52  -3.62549237e+02 -3.62590659e+02  6.43e-04 1.46e-11  1.69e-07     7s
  53  -3.62548172e+02 -3.62590669e+02  6.85e-04 1.46e-11  1.56e-07     7s
  54  -3.62548186e+02 -3.62590747e+02  6.66e-04 1.46e-11  1.37e-07     7s
  55  -3.62550548e+02 -3.62590738e+02  6.01e-04 1.46e-11  1.34e-07     7s
  56  -3.62557645e+02 -3.62590294e+02  1.02e-03 1.46e-11  8.56e-08     7s
  57  -3.62556093e+02 -3.62589792e+02  1.01e-03 1.46e-11  7.72e-08     7s
  58  -3.62593814e+02 -3.62589810e+02  9.28e-04 1.46e-11  6.27e-08     8s
  59  -3.62574985e+02 -3.62589813e+02  6.59e-04 1.46e-11  3.77e-08     8s
  60  -3.62575576e+02 -3.62589679e+02  6.37e-04 1.46e-11  3.71e-08     8s
  61  -3.62588510e+02 -3.62589725e+02  4.73e-04 1.46e-11  1.85e-08     8s
  62  -3.62588316e+02 -3.62589812e+02  4.70e-04 2.91e-11  1.76e-08     8s
  63  -3.62586713e+02 -3.62589751e+02  1.18e-03 1.46e-11  1.29e-08     8s
  64  -3.62600616e+02 -3.62589743e+02  9.39e-04 1.46e-11  8.27e-09     9s
  65  -3.62598694e+02 -3.62589745e+02  1.06e-03 1.46e-11  7.23e-09     9s
  66  -3.62591721e+02 -3.62589568e+02  7.41e-04 1.46e-11  5.68e-09     9s
  67  -3.62600065e+02 -3.62589567e+02  7.70e-04 1.46e-11  4.90e-09     9s
  68  -3.62599508e+02 -3.62589535e+02  6.97e-04 1.46e-11  3.83e-09     9s
  69  -3.62601656e+02 -3.62589619e+02  6.60e-04 1.46e-11  3.43e-09     9s
  70  -3.62599984e+02 -3.62589626e+02  6.37e-04 1.46e-11  3.32e-09     9s
  71  -3.62586293e+02 -3.62589623e+02  6.82e-04 1.46e-11  2.30e-09     9s
  72  -3.62585217e+02 -3.62589534e+02  6.03e-04 1.46e-11  1.19e-09    10s
  73  -3.62580594e+02 -3.62589553e+02  3.51e-04 1.46e-11  1.66e-09    10s
  74  -3.62592322e+02 -3.62589559e+02  5.39e-04 1.46e-11  9.98e-10    10s
  75  -3.62592259e+02 -3.62589578e+02  4.67e-04 1.46e-11  4.88e-10    10s
  76  -3.62592456e+02 -3.62589572e+02  4.71e-04 1.46e-11  5.12e-10    10s
  77  -3.62584692e+02 -3.62589460e+02  6.53e-04 2.91e-11  3.96e-10    10s
  78  -3.62585727e+02 -3.62589588e+02  3.90e-04 1.46e-11  2.36e-10    11s
  79  -3.62594317e+02 -3.62589526e+02  1.05e-03 1.46e-11  3.69e-10    11s
  80  -3.62594553e+02 -3.62589473e+02  1.04e-03 1.46e-11  4.17e-10    11s
  81  -3.62601594e+02 -3.62589449e+02  7.22e-04 1.46e-11  1.31e-09    11s
  82  -3.62600466e+02 -3.62589512e+02  7.02e-04 1.46e-11  9.98e-10    11s
  83  -3.62618121e+02 -3.62589401e+02  1.58e-03 8.73e-11  5.49e-10    11s
  84  -3.62593009e+02 -3.62589424e+02  1.52e-03 1.46e-11  6.70e-10    11s
  85  -3.62593009e+02 -3.62589300e+02  1.52e-03 1.46e-11  5.53e-10    11s

Barrier performed 85 iterations in 11.42 seconds
Sub-optimal termination - objective -3.61966830e+02

Solve time: 11.427565173
Barrier iterations: 85
